Data path: /scratch/opt/lxu/CFLG/benchmarks/tree_A
Instance: treeA.200.10
Result path: /scratch/opt/lxu/CFLG/results/tree_A
Solver: Gurobi
Time limit: 7200
Formulation: LEFPAV
Cover: Small
julia --project=. src/main.jl /scratch/opt/lxu/CFLG/benchmarks/tree_A treeA.200.10 /scratch/opt/lxu/CFLG/results/tree_A Gurobi 7200 LEFPAV Small
The latest version of Julia in the `release` channel is 1.11.5+0.x64.linux.gnu. You currently have `1.11.4+0.x64.linux.gnu` installed. Run:

  juliaup update

in your terminal shell to install Julia 1.11.5+0.x64.linux.gnu and update the `release` channel to that version.
/scratch/opt/lxu/CFLG/benchmarks/tree_A Gurobi 7200.0 /scratch/opt/lxu/CFLG/results/tree_A treeA.200.10 LEFPAV Small
/scratch/opt/lxu/CFLG/benchmarks/tree_A/treeA.200.10

 read graph
data loaded


after absorb:123 200

max_piece:20
problem_graph/original graph: node: 123/200 edge: 132/209 dlt: 0.375947441626396 break_avg_len: 2.3810004636338404 break_max_len: 7.239167709824063Vbar/V, Ebar/E(38, 123, 47, 132)
(3, 108)(8, 54)(8, 31)(9, 108)(9, 53)(10, 90)(10, 74)(10, 53)(11, 78)(11, 26)(20, 41)(9, 20)(36, 118)(31, 36)(21, 36)(39, 62)(19, 41)(41, 52)(47, 73)(27, 52)(21, 52)(39, 54)(27, 57)(39, 57)(19, 57)(58, 107)(19, 62)(67, 90)(53, 67)(58, 73)(23, 78)(27, 80)(11, 80)(47, 81)(26, 81)(71, 81)(82, 97)(3, 90)(90, 97)(94, 107)(23, 94)(62, 115)(74, 115)(52, 115)(82, 116)(54, 116)(71, 118)(Dict(16 => 36.0, 20 => 6.0, 35 => 21.0, 12 => 2.0, 28 => 4.0, 8 => 7.0, 17 => 4.0, 37 => 40.0, 1 => 9.0, 19 => 2.0, 32 => 2.0, 22 => 2.0, 6 => 6.0, 23 => 12.0, 11 => 6.0, 36 => 3.0, 31 => 24.0, 9 => 1.0, 3 => 6.0, 29 => 12.0, 7 => 4.0, 25 => 2.0, 34 => 2.0, 4 => 1.0, 13 => 9.0, 21 => 5.0, 2 => 2.0, 27 => 11.0, 38 => 4.0, 26 => 4.0, 18 => 8.0, 10 => 4.0), [12, 16, 20, 27, 31, 37, 4, 7, 11, 13, 17, 21, 26, 28, 34, 35, 38, 2, 3, 8, 18, 19, 25, 29, 32, 1, 6, 9, 10, 22, 23, 36], 70, 79)Set parameter TokenServer to value "solice01.zib.de"
Set parameter Threads to value 1
Set parameter OutputFlag to value 1
Gurobi Optimizer version 12.0.1 build v12.0.1rc0 (linux64 - "Debian GNU/Linux 12 (bookworm)")

CPU model: Intel(R) Xeon(R) Gold 5122 CPU @ 3.60GHz, instruction set [SSE2|AVX|AVX2|AVX512]
Thread count: 8 physical cores, 16 logical processors, using up to 1 threads

Non-default parameters:
Threads  1

Optimize a model with 149 rows, 237 columns and 395 nonzeros
Model fingerprint: 0x107da5ec
Coefficient statistics:
  Matrix range     [1e+00, 1e+00]
  Objective range  [1e+00, 1e+00]
  Bounds range     [1e+00, 1e+00]
  RHS range        [1e+00, 1e+00]
Presolve removed 149 rows and 237 columns
Presolve time: 0.00s
Presolve: All rows and columns removed
Iteration    Objective       Primal Inf.    Dual Inf.      Time
       0    3.2000000e+01   0.000000e+00   0.000000e+00      0s

Solved in 0 iterations and 0.00 seconds (0.00 work units)
Optimal objective  3.200000000e+01

User-callback calls 35, time in user-callback 0.00 sec
elapsed CPU time: 1.733297 seconds
Set parameter TokenServer to value "solice01.zib.de"
Set parameter Threads to value 1
Set parameter OutputFlag to value 1
Set parameter MIPGap to value 0.0001
Set parameter MIPGapAbs to value 0.999998
Set parameter TimeLimit to value 7198.266703

 more cuts: false 0.375947441626396 false
is_attach:trueformulation:LEFPAV0 79 0
Set parameter PreCrush to value 1

 model loaded

Gurobi Optimizer version 12.0.1 build v12.0.1rc0 (linux64 - "Debian GNU/Linux 12 (bookworm)")

CPU model: Intel(R) Xeon(R) Gold 5122 CPU @ 3.60GHz, instruction set [SSE2|AVX|AVX2|AVX512]
Thread count: 8 physical cores, 16 logical processors, using up to 1 threads

Non-default parameters:
TimeLimit  7198.266703
MIPGapAbs  0.999998
PreCrush  1
Threads  1

Optimize a model with 1018 rows, 759 columns and 2447 nonzeros
Model fingerprint: 0x3c85dfeb
Variable types: 228 continuous, 531 integer (531 binary)
Coefficient statistics:
  Matrix range     [4e-03, 6e+00]
  Objective range  [1e+00, 1e+00]
  Bounds range     [4e-03, 6e+00]
  RHS range        [1e-06, 7e+00]
Presolve removed 1018 rows and 759 columns
Presolve time: 0.00s
Presolve: All rows and columns removed

Explored 0 nodes (0 simplex iterations) in 0.00 seconds (0.00 work units)
Thread count was 1 (of 16 available processors)

Solution count 1: 328 

Optimal solution found (tolerance 1.00e-04)
Best objective 3.280000000000e+02, best bound 3.280000000000e+02, gap 0.0000%

User-callback calls 473, time in user-callback 0.86 sec

 sepatime0 474 0
328.0Stat(MathOptInterface.OPTIMAL, 328.0, 328.0, 0.0, 0.0, 1.733297, 0.002431154251098633, 0, Main.CFLG.LEFPAV, "", #undef)
